unsat
(:cnf-encoding-aux-vars   18
 :eliminated-applications 1
 :eliminated-vars         48
 :max-memory              18.40
 :memory                  18.10
 :nlsat-conflicts         6
 :nlsat-decisions         46
 :nlsat-learned-added     5
 :nlsat-propagations      37
 :num-allocs              9861
 :rlimit-count            19824
 :time                    0.01
 :total-time              0.02)
